\ENCODING=ISO-8859-1
\Problem name: ilog.cplex

Maximize
 obj: 828 x(0)#0 + 847 x(1)#1 + 661 x(2)#2 + 821 x(3)#3 + 991 x(4)#4
      + 474 x(5)#5 + 801 x(6)#6 + 706 x(7)#7 + 543 x(8)#8 + 607 x(9)#9
      + 849 x(10)#10 + 802 x(11)#11 + 722 x(12)#12 + 563 x(13)#13
      + 904 x(14)#14 + 565 x(15)#15 + 1084 x(16)#16 + 805 x(17)#17
      + 837 x(18)#18 + 481 x(19)#19 + 612 x(20)#20 + 622 x(21)#21
      + 689 x(22)#22 + 948 x(23)#23 + 865 x(24)#24 + 827 x(25)#25
      + 745 x(26)#26 + 828 x(27)#27 + 931 x(28)#28 + 649 x(29)#29
      + 732 x(30)#30 + 752 x(31)#31 + 749 x(32)#32 + 806 x(33)#33
      + 707 x(34)#34 + 615 x(35)#35 + 602 x(36)#36 + 841 x(37)#37
      + 1060 x(38)#38 + 881 x(39)#39 + 584 x(40)#40 + 788 x(41)#41
      + 530 x(42)#42 + 688 x(43)#43 + 985 x(44)#44 + 863 x(45)#45
      + 666 x(46)#46 + 986 x(47)#47 + 889 x(48)#48 + 701 x(49)#49
      + 614 x(50)#50 + 893 x(51)#51 + 587 x(52)#52 + 709 x(53)#53
      + 669 x(54)#54 + 627 x(55)#55 + 657 x(56)#56 + 662 x(57)#57
      + 854 x(58)#58 + 739 x(59)#59 + 737 x(60)#60 + 562 x(61)#61
      + 877 x(62)#62 + 542 x(63)#63 + 860 x(64)#64 + 793 x(65)#65
      + 833 x(66)#66 + 1088 x(67)#67 + 1123 x(68)#68 + 496 x(69)#69
      + 888 x(70)#70 + 567 x(71)#71 + 662 x(72)#72 + 561 x(73)#73
      + 561 x(74)#74 + 732 x(75)#75 + 816 x(76)#76 + 888 x(77)#77
      + 633 x(78)#78 + 680 x(79)#79 + 1148 x(80)#80 + 772 x(81)#81
      + 890 x(82)#82 + 532 x(83)#83 + 609 x(84)#84 + 658 x(85)#85
      + 824 x(86)#86 + 900 x(87)#87 + 646 x(88)#88 + 710 x(89)#89
      + 914 x(90)#90 + 678 x(91)#91 + 674 x(92)#92 + 643 x(93)#93
      + 459 x(94)#94 + 515 x(95)#95 + 446 x(96)#96 + 941 x(97)#97
      + 814 x(98)#98 + 575 x(99)#99
Subject To
 c1:  812 x(0)#0 + 823 x(1)#1 + 11 x(2)#2 + 101 x(3)#3 + 635 x(4)#4
      + 908 x(5)#5 + 472 x(6)#6 + 614 x(7)#7 + 501 x(8)#8 + 804 x(9)#9
      + 187 x(10)#10 + 987 x(11)#11 + 82 x(12)#12 + 74 x(13)#13 + 336 x(14)#14
      + 512 x(15)#15 + 572 x(16)#16 + 818 x(17)#17 + 599 x(18)#18
      + 792 x(19)#19 + 926 x(20)#20 + 660 x(21)#21 + 270 x(22)#22
      + 465 x(23)#23 + 296 x(24)#24 + 12 x(25)#25 + 373 x(26)#26 + 787 x(27)#27
      + 4 x(28)#28 + 674 x(29)#29 + 509 x(30)#30 + 423 x(31)#31 + 326 x(32)#32
      + 361 x(33)#33 + 664 x(34)#34 + 527 x(35)#35 + 813 x(36)#36
      + 914 x(37)#37 + 534 x(38)#38 + 441 x(39)#39 + 19 x(40)#40 + 758 x(41)#41
      + 110 x(42)#42 + 475 x(43)#43 + 758 x(44)#44 + 934 x(45)#45
      + 439 x(46)#46 + 646 x(47)#47 + 220 x(48)#48 + 627 x(49)#49
      + 969 x(50)#50 + 299 x(51)#51 + 993 x(52)#52 + 148 x(53)#53
      + 742 x(54)#54 + 22 x(55)#55 + 392 x(56)#56 + 979 x(57)#57 + 311 x(58)#58
      + 156 x(59)#59 + 619 x(60)#60 + 143 x(61)#61 + 424 x(62)#62
      + 645 x(63)#63 + 202 x(64)#64 + 751 x(65)#65 + 500 x(66)#66
      + 570 x(67)#67 + 421 x(68)#68 + 587 x(69)#69 + 87 x(70)#70 + 285 x(71)#71
      + 234 x(72)#72 + 58 x(73)#73 + 189 x(74)#74 + 667 x(75)#75 + 949 x(76)#76
      + 818 x(77)#77 + 325 x(78)#78 + 978 x(79)#79 + 843 x(80)#80
      + 340 x(81)#81 + 149 x(82)#82 + 411 x(83)#83 + 365 x(84)#84
      + 636 x(85)#85 + 164 x(86)#86 + 206 x(87)#87 + 749 x(88)#88
      + 729 x(89)#89 + 306 x(90)#90 + 792 x(91)#91 + 953 x(92)#92
      + 384 x(93)#93 + 80 x(94)#94 + 741 x(95)#95 + 394 x(96)#96
      + 1000 x(97)#97 + 70 x(98)#98 + 869 x(99)#99 <= 25125
 c2:  692 x(0)#0 + 326 x(1)#1 + 865 x(2)#2 + 632 x(3)#3 + 579 x(4)#4
      + 751 x(5)#5 + 793 x(6)#6 + 929 x(7)#7 + 425 x(8)#8 + 303 x(9)#9
      + 531 x(10)#10 + 933 x(11)#11 + 234 x(12)#12 + 84 x(13)#13 + 131 x(14)#14
      + 408 x(15)#15 + 852 x(16)#16 + 913 x(17)#17 + 288 x(18)#18
      + 419 x(19)#19 + 23 x(20)#20 + 507 x(21)#21 + 477 x(22)#22 + 623 x(23)#23
      + 272 x(24)#24 + 750 x(25)#25 + 411 x(26)#26 + 895 x(27)#27
      + 229 x(28)#28 + 53 x(29)#29 + 503 x(30)#30 + 273 x(31)#31 + 8 x(32)#32
      + 852 x(33)#33 + 868 x(34)#34 + 564 x(35)#35 + 860 x(36)#36
      + 749 x(37)#37 + 865 x(38)#38 + 143 x(39)#39 + 337 x(40)#40
      + 516 x(41)#41 + 161 x(42)#42 + 989 x(43)#43 + 951 x(44)#44
      + 619 x(45)#45 + 717 x(46)#46 + 705 x(47)#47 + 716 x(48)#48
      + 861 x(49)#49 + 593 x(50)#50 + 883 x(51)#51 + 406 x(52)#52
      + 195 x(53)#53 + 129 x(54)#54 + 480 x(55)#55 + 687 x(56)#56
      + 912 x(57)#57 + 921 x(58)#58 + 420 x(59)#59 + 803 x(60)#60
      + 485 x(61)#61 + 111 x(62)#62 + 839 x(63)#63 + 515 x(64)#64
      + 436 x(65)#65 + 593 x(66)#66 + 215 x(67)#67 + 959 x(68)#68
      + 437 x(69)#69 + 998 x(70)#70 + 395 x(71)#71 + 597 x(72)#72
      + 905 x(73)#73 + 814 x(74)#74 + 755 x(75)#75 + 932 x(76)#76
      + 642 x(77)#77 + 425 x(78)#78 + 536 x(79)#79 + 911 x(80)#80
      + 375 x(81)#81 + 592 x(82)#82 + 719 x(83)#83 + 162 x(84)#84
      + 609 x(85)#85 + 445 x(86)#86 + 709 x(87)#87 + 838 x(88)#88
      + 791 x(89)#89 + 539 x(90)#90 + 218 x(91)#91 + 589 x(92)#92
      + 345 x(93)#93 + 549 x(94)#94 + 365 x(95)#95 + 740 x(96)#96
      + 598 x(97)#97 + 32 x(98)#98 + 387 x(99)#99 <= 28058
 c3:  523 x(0)#0 + 62 x(1)#1 + 968 x(2)#2 + 286 x(3)#3 + 502 x(4)#4
      + 399 x(5)#5 + 587 x(6)#6 + 199 x(7)#7 + 648 x(8)#8 + 249 x(9)#9
      + 352 x(10)#10 + 268 x(11)#11 + 612 x(12)#12 + 904 x(13)#13
      + 293 x(14)#14 + 872 x(15)#15 + 396 x(16)#16 + 500 x(17)#17
      + 186 x(18)#18 + 629 x(19)#19 + 982 x(20)#20 + 626 x(21)#21
      + 529 x(22)#22 + 554 x(23)#23 + 593 x(24)#24 + 544 x(25)#25
      + 123 x(26)#26 + 396 x(27)#27 + 971 x(28)#28 + 947 x(29)#29
      + 977 x(30)#30 + 702 x(31)#31 + 576 x(32)#32 + 113 x(33)#33
      + 591 x(34)#34 + 856 x(35)#35 + 570 x(36)#36 + 246 x(37)#37
      + 840 x(38)#38 + 113 x(39)#39 + 875 x(40)#40 + 167 x(41)#41
      + 241 x(42)#42 + 317 x(43)#43 + 148 x(44)#44 + 143 x(45)#45
      + 967 x(46)#46 + 644 x(47)#47 + 515 x(48)#48 + 252 x(49)#49 + 64 x(50)#50
      + 768 x(51)#51 + 901 x(52)#52 + 441 x(53)#53 + 883 x(54)#54
      + 516 x(55)#55 + 897 x(56)#56 + 163 x(57)#57 + 782 x(58)#58
      + 916 x(59)#59 + 113 x(60)#60 + 571 x(61)#61 + 179 x(62)#62
      + 145 x(63)#63 + 679 x(64)#64 + 637 x(65)#65 + 170 x(66)#66
      + 121 x(67)#67 + 779 x(68)#68 + 244 x(69)#69 + 197 x(70)#70
      + 417 x(71)#71 + 534 x(72)#72 + 364 x(73)#73 + 717 x(74)#74
      + 538 x(75)#75 + 301 x(76)#76 + 877 x(77)#77 + 384 x(78)#78
      + 932 x(79)#79 + 767 x(80)#80 + 186 x(81)#81 + 903 x(82)#82
      + 165 x(83)#83 + 997 x(84)#84 + 509 x(85)#85 + 320 x(86)#86 + 88 x(87)#87
      + 420 x(88)#88 + 985 x(89)#89 + 825 x(90)#90 + 421 x(91)#91
      + 828 x(92)#92 + 412 x(93)#93 + 191 x(94)#94 + 524 x(95)#95
      + 998 x(96)#96 + 691 x(97)#97 + 50 x(98)#98 + 609 x(99)#99 <= 25836
 c4:  24 x(0)#0 + 980 x(1)#1 + 777 x(2)#2 + 855 x(3)#3 + 775 x(4)#4
      + 137 x(5)#5 + 52 x(6)#6 + 301 x(7)#7 + 81 x(8)#8 + 905 x(9)#9
      + 342 x(10)#10 + 992 x(11)#11 + 168 x(12)#12 + 254 x(13)#13
      + 638 x(14)#14 + 534 x(15)#15 + 661 x(16)#16 + 726 x(17)#17
      + 129 x(18)#18 + 541 x(19)#19 + 618 x(20)#20 + 658 x(21)#21
      + 962 x(22)#22 + 847 x(23)#23 + 470 x(24)#24 + 897 x(25)#25
      + 525 x(26)#26 + 775 x(27)#27 + 703 x(28)#28 + 426 x(29)#29
      + 758 x(30)#30 + 520 x(31)#31 + 425 x(32)#32 + 51 x(33)#33 + 965 x(34)#34
      + 66 x(35)#35 + 360 x(36)#36 + 789 x(37)#37 + 862 x(38)#38 + 876 x(39)#39
      + 183 x(40)#40 + 347 x(41)#41 + 369 x(42)#42 + 440 x(43)#43
      + 878 x(44)#44 + 110 x(45)#45 + 854 x(46)#46 + 865 x(47)#47
      + 973 x(48)#48 + 931 x(49)#49 + 790 x(50)#50 + 581 x(51)#51
      + 556 x(52)#52 + 535 x(53)#53 + 786 x(54)#54 + 410 x(55)#55
      + 542 x(56)#56 + 535 x(57)#57 + 492 x(58)#58 + 426 x(59)#59
      + 873 x(60)#60 + 466 x(61)#61 + 704 x(62)#62 + 102 x(63)#63
      + 790 x(64)#64 + 611 x(65)#65 + 176 x(66)#66 + 980 x(67)#67
      + 656 x(68)#68 + 184 x(69)#69 + 714 x(70)#70 + 353 x(71)#71
      + 455 x(72)#72 + 36 x(73)#73 + 26 x(74)#74 + 948 x(75)#75 + 58 x(76)#76
      + 45 x(77)#77 + 15 x(78)#78 + 591 x(79)#79 + 470 x(80)#80 + 820 x(81)#81
      + 351 x(82)#82 + 199 x(83)#83 + 600 x(84)#84 + 599 x(85)#85
      + 1000 x(86)#86 + 230 x(87)#87 + 772 x(88)#88 + 321 x(89)#89
      + 902 x(90)#90 + 133 x(91)#91 + 820 x(92)#92 + 532 x(93)#93
      + 406 x(94)#94 + 275 x(95)#95 + 79 x(96)#96 + 364 x(97)#97 + 20 x(98)#98
      + 188 x(99)#99 <= 25946
 c5:  31 x(0)#0 + 195 x(1)#1 + 753 x(2)#2 + 258 x(3)#3 + 505 x(4)#4
      + 428 x(5)#5 + 369 x(6)#6 + 620 x(7)#7 + 10 x(8)#8 + 48 x(9)#9
      + 464 x(10)#10 + 889 x(11)#11 + 838 x(12)#12 + 106 x(13)#13
      + 587 x(14)#14 + 282 x(15)#15 + 424 x(16)#16 + 771 x(17)#17
      + 958 x(18)#18 + 475 x(19)#19 + 112 x(20)#20 + 100 x(21)#21 + 56 x(22)#22
      + 608 x(23)#23 + 1000 x(24)#24 + 584 x(25)#25 + 32 x(26)#26
      + 935 x(27)#27 + 245 x(28)#28 + 797 x(29)#29 + 439 x(30)#30
      + 105 x(31)#31 + 230 x(32)#32 + 790 x(33)#33 + 2 x(34)#34 + 792 x(35)#35
      + 325 x(36)#36 + 993 x(37)#37 + 718 x(38)#38 + 848 x(39)#39
      + 272 x(40)#40 + 209 x(41)#41 + 194 x(42)#42 + 677 x(43)#43
      + 527 x(44)#44 + 284 x(45)#45 + 770 x(46)#46 + 8 x(47)#47 + 307 x(48)#48
      + 138 x(49)#49 + 890 x(50)#50 + 753 x(51)#51 + 899 x(52)#52
      + 970 x(53)#53 + 525 x(54)#54 + 691 x(55)#55 + 406 x(56)#56
      + 444 x(57)#57 + 864 x(58)#58 + 722 x(59)#59 + 695 x(60)#60
      + 414 x(61)#61 + 569 x(62)#62 + 973 x(63)#63 + 299 x(64)#64
      + 640 x(65)#65 + 135 x(66)#66 + 971 x(67)#67 + 132 x(68)#68
      + 686 x(69)#69 + 888 x(70)#70 + 384 x(71)#71 + 291 x(72)#72
      + 856 x(73)#73 + 309 x(74)#74 + 316 x(75)#75 + 368 x(76)#76
      + 403 x(77)#77 + 206 x(78)#78 + 983 x(79)#79 + 297 x(80)#80
      + 421 x(81)#81 + 676 x(82)#82 + 879 x(83)#83 + 460 x(84)#84
      + 579 x(85)#85 + 139 x(86)#86 + 813 x(87)#87 + 564 x(88)#88
      + 107 x(89)#89 + 132 x(90)#90 + 19 x(91)#91 + 989 x(92)#92 + 272 x(93)#93
      + 116 x(94)#94 + 694 x(95)#95 + 824 x(96)#96 + 817 x(97)#97
      + 238 x(98)#98 + 251 x(99)#99 <= 24539
 c6:  365 x(0)#0 + 848 x(1)#1 + 960 x(2)#2 + 107 x(3)#3 + 516 x(4)#4
      + 180 x(5)#5 + 328 x(6)#6 + 910 x(7)#7 + 417 x(8)#8 + 526 x(9)#9
      + 693 x(10)#10 + 105 x(11)#11 + 819 x(12)#12 + 275 x(13)#13
      + 310 x(14)#14 + 951 x(15)#15 + 811 x(16)#16 + 590 x(17)#17
      + 995 x(18)#18 + 536 x(19)#19 + 916 x(20)#20 + 730 x(21)#21
      + 341 x(22)#22 + 652 x(23)#23 + 911 x(24)#24 + 746 x(25)#25
      + 742 x(26)#26 + 462 x(27)#27 + 996 x(28)#28 + 562 x(29)#29
      + 975 x(30)#30 + 529 x(31)#31 + 616 x(32)#32 + 770 x(33)#33
      + 278 x(34)#34 + 723 x(35)#35 + x(36)#36 + 77 x(37)#37 + 348 x(38)#38
      + 771 x(39)#39 + 186 x(40)#40 + 37 x(41)#41 + 296 x(42)#42 + 396 x(43)#43
      + 831 x(44)#44 + 292 x(45)#45 + 662 x(46)#46 + 735 x(47)#47
      + 888 x(48)#48 + 755 x(49)#49 + 916 x(50)#50 + 243 x(51)#51
      + 365 x(52)#52 + 411 x(53)#53 + 714 x(54)#54 + 956 x(55)#55
      + 933 x(56)#56 + 693 x(57)#57 + 143 x(58)#58 + 363 x(59)#59
      + 847 x(60)#60 + 514 x(61)#61 + 196 x(62)#62 + 747 x(63)#63
      + 933 x(64)#64 + 593 x(65)#65 + 681 x(66)#66 + 63 x(67)#67 + 876 x(68)#68
      + 540 x(69)#69 + 649 x(70)#70 + 491 x(71)#71 + 876 x(72)#72
      + 337 x(73)#73 + 574 x(74)#74 + 10 x(75)#75 + 135 x(76)#76 + 929 x(77)#77
      + 20 x(78)#78 + 745 x(79)#79 + 851 x(80)#80 + 307 x(81)#81 + 759 x(82)#82
      + 909 x(83)#83 + 727 x(84)#84 + 646 x(85)#85 + 588 x(86)#86
      + 706 x(87)#87 + 984 x(88)#88 + 824 x(89)#89 + 745 x(90)#90 + 78 x(91)#91
      + 409 x(92)#92 + 482 x(93)#93 + 323 x(94)#94 + 754 x(95)#95 + 52 x(96)#96
      + 943 x(97)#97 + 42 x(98)#98 + 14 x(99)#99 <= 28051
 c7:  35 x(0)#0 + 800 x(1)#1 + 622 x(2)#2 + 334 x(3)#3 + 837 x(4)#4
      + 145 x(5)#5 + 121 x(6)#6 + 617 x(7)#7 + 66 x(8)#8 + 114 x(9)#9
      + 250 x(10)#10 + 771 x(11)#11 + 548 x(12)#12 + 565 x(13)#13
      + 644 x(14)#14 + 408 x(15)#15 + 819 x(16)#16 + 330 x(17)#17
      + 411 x(18)#18 + 423 x(19)#19 + 143 x(20)#20 + 332 x(21)#21
      + 538 x(22)#22 + 112 x(23)#23 + 627 x(24)#24 + 977 x(25)#25
      + 964 x(26)#26 + 677 x(27)#27 + 702 x(28)#28 + 300 x(29)#29
      + 961 x(30)#30 + 130 x(31)#31 + 288 x(32)#32 + 722 x(33)#33
      + 540 x(34)#34 + 540 x(35)#35 + 951 x(36)#36 + 662 x(37)#37
      + 255 x(38)#38 + 858 x(39)#39 + 568 x(40)#40 + 869 x(41)#41
      + 398 x(42)#42 + 743 x(43)#43 + 516 x(44)#44 + 866 x(45)#45
      + 187 x(46)#46 + 898 x(47)#47 + 831 x(48)#48 + 527 x(49)#49
      + 278 x(50)#50 + 372 x(51)#51 + 250 x(52)#52 + 728 x(53)#53
      + 706 x(54)#54 + 863 x(55)#55 + 907 x(56)#56 + 375 x(57)#57 + 73 x(58)#58
      + 854 x(59)#59 + 226 x(60)#60 + 622 x(61)#61 + 69 x(62)#62 + 17 x(63)#63
      + 907 x(64)#64 + 569 x(65)#65 + 91 x(66)#66 + 629 x(67)#67 + 481 x(68)#68
      + 175 x(69)#69 + 560 x(70)#70 + 357 x(71)#71 + 657 x(72)#72
      + 461 x(73)#73 + 624 x(74)#74 + 867 x(75)#75 + 746 x(76)#76 + 97 x(77)#77
      + 499 x(78)#78 + 205 x(79)#79 + 725 x(80)#80 + 238 x(81)#81
      + 166 x(82)#82 + 23 x(83)#83 + 297 x(84)#84 + 308 x(85)#85 + 235 x(86)#86
      + 556 x(87)#87 + 339 x(88)#88 + 221 x(89)#89 + 784 x(90)#90
      + 596 x(91)#91 + 728 x(92)#92 + 192 x(93)#93 + 727 x(94)#94
      + 644 x(95)#95 + 74 x(96)#96 + 542 x(97)#97 + 771 x(98)#98 + 561 x(99)#99
      <= 24767
 c8:  379 x(0)#0 + 525 x(1)#1 + 653 x(2)#2 + 170 x(3)#3 + 117 x(4)#4
      + 247 x(5)#5 + 970 x(6)#6 + 328 x(7)#7 + 150 x(8)#8 + 394 x(9)#9
      + 957 x(10)#10 + 975 x(11)#11 + 836 x(12)#12 + 862 x(13)#13
      + 699 x(14)#14 + 57 x(15)#15 + 964 x(16)#16 + 921 x(17)#17 + 835 x(18)#18
      + 7 x(19)#19 + 242 x(20)#20 + 994 x(21)#21 + 810 x(22)#22 + 423 x(23)#23
      + 1000 x(24)#24 + 840 x(25)#25 + 327 x(26)#26 + 340 x(27)#27
      + 743 x(28)#28 + 240 x(29)#29 + 563 x(30)#30 + 736 x(31)#31
      + 358 x(32)#32 + 31 x(33)#33 + 878 x(34)#34 + 177 x(35)#35 + 109 x(36)#36
      + 293 x(37)#37 + 122 x(38)#38 + 519 x(39)#39 + 632 x(40)#40
      + 750 x(41)#41 + 737 x(42)#42 + 449 x(43)#43 + 500 x(44)#44
      + 200 x(45)#45 + 845 x(46)#46 + 667 x(47)#47 + 692 x(48)#48
      + 663 x(49)#49 + 19 x(50)#50 + 160 x(51)#51 + 312 x(52)#52 + 343 x(53)#53
      + 278 x(54)#54 + 134 x(55)#55 + 754 x(56)#56 + 878 x(57)#57
      + 525 x(58)#58 + 23 x(59)#59 + 472 x(60)#60 + 199 x(61)#61 + 724 x(62)#62
      + 601 x(63)#63 + 744 x(64)#64 + 334 x(65)#65 + 611 x(66)#66
      + 850 x(67)#67 + 864 x(68)#68 + 63 x(69)#69 + 649 x(70)#70 + 574 x(71)#71
      + 480 x(72)#72 + 637 x(73)#73 + 438 x(74)#74 + 227 x(75)#75
      + 966 x(76)#76 + 987 x(77)#77 + 755 x(78)#78 + 251 x(79)#79
      + 767 x(80)#80 + 948 x(81)#81 + 258 x(82)#82 + 551 x(83)#83
      + 782 x(84)#84 + 316 x(85)#85 + 197 x(86)#86 + 435 x(87)#87
      + 390 x(88)#88 + 242 x(89)#89 + 472 x(90)#90 + 742 x(91)#91
      + 823 x(92)#92 + 588 x(93)#93 + 229 x(94)#94 + 46 x(95)#95 + 627 x(96)#96
      + 393 x(97)#97 + 723 x(98)#98 + 789 x(99)#99 <= 26048
 c9:  614 x(0)#0 + 188 x(1)#1 + 230 x(2)#2 + 606 x(3)#3 + 743 x(4)#4
      + 614 x(5)#5 + 765 x(6)#6 + 269 x(7)#7 + 944 x(8)#8 + 360 x(9)#9
      + 158 x(10)#10 + 186 x(11)#11 + 7 x(12)#12 + 746 x(13)#13 + 57 x(14)#14
      + 308 x(15)#15 + 722 x(16)#16 + 359 x(17)#17 + 687 x(18)#18
      + 309 x(19)#19 + 301 x(20)#20 + 813 x(21)#21 + 817 x(22)#22
      + 369 x(23)#23 + 268 x(24)#24 + 510 x(25)#25 + 632 x(26)#26
      + 701 x(27)#27 + 14 x(28)#28 + 416 x(29)#29 + 583 x(30)#30 + 418 x(31)#31
      + 503 x(32)#32 + 468 x(33)#33 + 194 x(34)#34 + 935 x(35)#35
      + 620 x(36)#36 + 721 x(37)#37 + 846 x(38)#38 + 127 x(39)#39
      + 828 x(40)#40 + 390 x(41)#41 + 734 x(42)#42 + 592 x(43)#43
      + 611 x(44)#44 + 41 x(45)#45 + 184 x(46)#46 + 687 x(47)#47 + 278 x(48)#48
      + 858 x(49)#49 + 284 x(50)#50 + 947 x(51)#51 + 30 x(52)#52 + 95 x(53)#53
      + 471 x(54)#54 + 368 x(55)#55 + 45 x(56)#56 + 470 x(57)#57 + 899 x(58)#58
      + 872 x(59)#59 + 833 x(60)#60 + 164 x(61)#61 + 591 x(62)#62
      + 521 x(63)#63 + 443 x(64)#64 + 872 x(65)#65 + 749 x(66)#66
      + 857 x(67)#67 + 999 x(68)#68 + 855 x(69)#69 + 608 x(70)#70
      + 713 x(71)#71 + 241 x(72)#72 + 13 x(73)#73 + 970 x(74)#74 + 797 x(75)#75
      + 540 x(76)#76 + 368 x(77)#77 + 903 x(78)#78 + 231 x(79)#79
      + 897 x(80)#80 + 365 x(81)#81 + 867 x(82)#82 + 286 x(83)#83
      + 345 x(84)#84 + 839 x(85)#85 + 380 x(86)#86 + 331 x(87)#87
      + 699 x(88)#88 + 675 x(89)#89 + 878 x(90)#90 + 909 x(91)#91 + 5 x(92)#92
      + 180 x(93)#93 + 875 x(94)#94 + 241 x(95)#95 + 419 x(96)#96
      + 768 x(97)#97 + 983 x(98)#98 + 179 x(99)#99 <= 26101
 c10: 760 x(0)#0 + 391 x(1)#1 + 244 x(2)#2 + 531 x(3)#3 + 415 x(4)#4
      + 406 x(5)#5 + 539 x(6)#6 + 104 x(7)#7 + 904 x(8)#8 + 512 x(9)#9
      + 741 x(10)#10 + 918 x(11)#11 + 99 x(12)#12 + 63 x(13)#13 + 501 x(14)#14
      + 703 x(15)#15 + 934 x(16)#16 + 349 x(17)#17 + 213 x(18)#18
      + 210 x(19)#19 + 151 x(20)#20 + 430 x(21)#21 + 531 x(22)#22
      + 605 x(23)#23 + 368 x(24)#24 + 793 x(25)#25 + 130 x(26)#26 + 84 x(27)#27
      + 254 x(28)#28 + 922 x(29)#29 + 399 x(30)#30 + 151 x(31)#31
      + 703 x(32)#32 + 793 x(33)#33 + 442 x(34)#34 + 445 x(35)#35
      + 422 x(36)#36 + 73 x(37)#37 + 225 x(38)#38 + 563 x(39)#39 + 505 x(40)#40
      + 880 x(41)#41 + 723 x(42)#42 + 547 x(43)#43 + 13 x(44)#44 + 840 x(45)#45
      + 825 x(46)#46 + 84 x(47)#47 + 942 x(48)#48 + 178 x(49)#49 + 677 x(50)#50
      + 13 x(51)#51 + 88 x(52)#52 + 742 x(53)#53 + 232 x(54)#54 + 497 x(55)#55
      + 452 x(56)#56 + 418 x(57)#57 + 708 x(58)#58 + 609 x(59)#59 + 76 x(60)#60
      + 808 x(61)#61 + 310 x(62)#62 + 764 x(63)#63 + 549 x(64)#64
      + 774 x(65)#65 + 618 x(66)#66 + 911 x(67)#67 + 103 x(68)#68
      + 756 x(69)#69 + 459 x(70)#70 + 429 x(71)#71 + 365 x(72)#72
      + 824 x(73)#73 + 137 x(74)#74 + 973 x(75)#75 + 765 x(76)#76
      + 985 x(77)#77 + 129 x(78)#78 + 526 x(79)#79 + 967 x(80)#80
      + 733 x(81)#81 + 434 x(82)#82 + 875 x(83)#83 + 38 x(84)#84 + 555 x(85)#85
      + 701 x(86)#86 + 559 x(87)#87 + 240 x(88)#88 + 416 x(89)#89
      + 835 x(90)#90 + 39 x(91)#91 + 317 x(92)#92 + 298 x(93)#93 + 748 x(94)#94
      + 218 x(95)#95 + 9 x(96)#96 + 366 x(97)#97 + 755 x(98)#98 + 745 x(99)#99
      <= 24552
Bounds
 0 <= x(0)#0 <= 1
 0 <= x(1)#1 <= 1
 0 <= x(2)#2 <= 1
 0 <= x(3)#3 <= 1
 0 <= x(4)#4 <= 1
 0 <= x(5)#5 <= 1
 0 <= x(6)#6 <= 1
 0 <= x(7)#7 <= 1
 0 <= x(8)#8 <= 1
 0 <= x(9)#9 <= 1
 0 <= x(10)#10 <= 1
 0 <= x(11)#11 <= 1
 0 <= x(12)#12 <= 1
 0 <= x(13)#13 <= 1
 0 <= x(14)#14 <= 1
 0 <= x(15)#15 <= 1
 0 <= x(16)#16 <= 1
 0 <= x(17)#17 <= 1
 0 <= x(18)#18 <= 1
 0 <= x(19)#19 <= 1
 0 <= x(20)#20 <= 1
 0 <= x(21)#21 <= 1
 0 <= x(22)#22 <= 1
 0 <= x(23)#23 <= 1
 0 <= x(24)#24 <= 1
 0 <= x(25)#25 <= 1
 0 <= x(26)#26 <= 1
 0 <= x(27)#27 <= 1
 0 <= x(28)#28 <= 1
 0 <= x(29)#29 <= 1
 0 <= x(30)#30 <= 1
 0 <= x(31)#31 <= 1
 0 <= x(32)#32 <= 1
 0 <= x(33)#33 <= 1
 0 <= x(34)#34 <= 1
 0 <= x(35)#35 <= 1
 0 <= x(36)#36 <= 1
 0 <= x(37)#37 <= 1
 0 <= x(38)#38 <= 1
 0 <= x(39)#39 <= 1
 0 <= x(40)#40 <= 1
 0 <= x(41)#41 <= 1
 0 <= x(42)#42 <= 1
 0 <= x(43)#43 <= 1
 0 <= x(44)#44 <= 1
 0 <= x(45)#45 <= 1
 0 <= x(46)#46 <= 1
 0 <= x(47)#47 <= 1
 0 <= x(48)#48 <= 1
 0 <= x(49)#49 <= 1
 0 <= x(50)#50 <= 1
 0 <= x(51)#51 <= 1
 0 <= x(52)#52 <= 1
 0 <= x(53)#53 <= 1
 0 <= x(54)#54 <= 1
 0 <= x(55)#55 <= 1
 0 <= x(56)#56 <= 1
 0 <= x(57)#57 <= 1
 0 <= x(58)#58 <= 1
 0 <= x(59)#59 <= 1
 0 <= x(60)#60 <= 1
 0 <= x(61)#61 <= 1
 0 <= x(62)#62 <= 1
 0 <= x(63)#63 <= 1
 0 <= x(64)#64 <= 1
 0 <= x(65)#65 <= 1
 0 <= x(66)#66 <= 1
 0 <= x(67)#67 <= 1
 0 <= x(68)#68 <= 1
 0 <= x(69)#69 <= 1
 0 <= x(70)#70 <= 1
 0 <= x(71)#71 <= 1
 0 <= x(72)#72 <= 1
 0 <= x(73)#73 <= 1
 0 <= x(74)#74 <= 1
 0 <= x(75)#75 <= 1
 0 <= x(76)#76 <= 1
 0 <= x(77)#77 <= 1
 0 <= x(78)#78 <= 1
 0 <= x(79)#79 <= 1
 0 <= x(80)#80 <= 1
 0 <= x(81)#81 <= 1
 0 <= x(82)#82 <= 1
 0 <= x(83)#83 <= 1
 0 <= x(84)#84 <= 1
 0 <= x(85)#85 <= 1
 0 <= x(86)#86 <= 1
 0 <= x(87)#87 <= 1
 0 <= x(88)#88 <= 1
 0 <= x(89)#89 <= 1
 0 <= x(90)#90 <= 1
 0 <= x(91)#91 <= 1
 0 <= x(92)#92 <= 1
 0 <= x(93)#93 <= 1
 0 <= x(94)#94 <= 1
 0 <= x(95)#95 <= 1
 0 <= x(96)#96 <= 1
 0 <= x(97)#97 <= 1
 0 <= x(98)#98 <= 1
 0 <= x(99)#99 <= 1
Generals
 x(0)#0  x(1)#1  x(2)#2  x(3)#3  x(4)#4  x(5)#5  x(6)#6  x(7)#7  x(8)#8 
 x(9)#9  x(10)#10  x(11)#11  x(12)#12  x(13)#13  x(14)#14  x(15)#15  x(16)#16 
 x(17)#17  x(18)#18  x(19)#19  x(20)#20  x(21)#21  x(22)#22  x(23)#23 
 x(24)#24  x(25)#25  x(26)#26  x(27)#27  x(28)#28  x(29)#29  x(30)#30 
 x(31)#31  x(32)#32  x(33)#33  x(34)#34  x(35)#35  x(36)#36  x(37)#37 
 x(38)#38  x(39)#39  x(40)#40  x(41)#41  x(42)#42  x(43)#43  x(44)#44 
 x(45)#45  x(46)#46  x(47)#47  x(48)#48  x(49)#49  x(50)#50  x(51)#51 
 x(52)#52  x(53)#53  x(54)#54  x(55)#55  x(56)#56  x(57)#57  x(58)#58 
 x(59)#59  x(60)#60  x(61)#61  x(62)#62  x(63)#63  x(64)#64  x(65)#65 
 x(66)#66  x(67)#67  x(68)#68  x(69)#69  x(70)#70  x(71)#71  x(72)#72 
 x(73)#73  x(74)#74  x(75)#75  x(76)#76  x(77)#77  x(78)#78  x(79)#79 
 x(80)#80  x(81)#81  x(82)#82  x(83)#83  x(84)#84  x(85)#85  x(86)#86 
 x(87)#87  x(88)#88  x(89)#89  x(90)#90  x(91)#91  x(92)#92  x(93)#93 
 x(94)#94  x(95)#95  x(96)#96  x(97)#97  x(98)#98  x(99)#99 
End
